
******************************************************************************
This program contains Ipopt, a library for large-scale nonlinear optimization.
 Ipopt is released as open source code under the Eclipse Public License (EPL).
         For more information visit http://projects.coin-or.org/Ipopt
******************************************************************************

This is Ipopt version 3.12.3, running with linear solver mumps.
NOTE: Other linear solvers might be more efficient (see Ipopt documentation).

Number of nonzeros in equality constraint Jacobian...:        0
Number of nonzeros in inequality constraint Jacobian.:        2
Number of nonzeros in Lagrangian Hessian.............:        0

Total number of variables............................:        2
                     variables with only lower bounds:        1
                variables with lower and upper bounds:        1
                     variables with only upper bounds:        0
Total number of equality constraints.................:        0
Total number of inequality constraints...............:        1
        inequality constraints with only lower bounds:        0
   inequality constraints with lower and upper bounds:        0
        inequality constraints with only upper bounds:        1

iter    objective    inf_pr   inf_du lg(mu)  ||d||  lg(rg) alpha_du alpha_pr  ls
   0 -2.3949976e-01 0.00e+00 8.29e+00   0.0 0.00e+00    -  0.00e+00 0.00e+00   0
   1 -2.8606081e+01 0.00e+00 1.07e+01   0.8 1.25e+01    -  7.52e-02 3.93e-01f  1
   2 -2.7088673e+01 0.00e+00 3.42e+00   0.6 3.66e+00    -  3.46e-01 3.66e-01f  2
   3 -2.9287846e+01 0.00e+00 3.18e+00   0.1 1.24e+01    -  1.08e-01 5.55e-02f  2
   4 -2.9866767e+01 0.00e+00 2.51e+00  -0.4 6.85e-01    -  9.76e-01 5.00e-01f  2
   5 -2.9702552e+01 0.00e+00 1.65e+00  -0.1 1.60e+00    -  8.00e-01 2.50e-01f  3
   6 -3.0092584e+01 0.00e+00 1.66e+00  -0.3 6.81e+00    -  2.30e-01 5.03e-02f  2
   7 -2.9962286e+01 0.00e+00 1.33e+00  -0.3 2.45e+00    -  9.39e-01 1.02e-01f  4
   8 -3.0137626e+01 0.00e+00 1.21e+00  -0.4 1.10e+01    -  1.62e-01 1.30e-02f  3
   9 -3.0196459e+01 0.00e+00 1.32e+00  -1.1 1.98e+00    -  1.00e+00 5.43e-02f  3
iter    objective    inf_pr   inf_du lg(mu)  ||d||  lg(rg) alpha_du alpha_pr  ls
  10 -3.0412608e+01 0.00e+00 1.19e+00  -1.0 5.97e-01    -  9.13e-01 4.10e-01f  2
  11 -3.0493534e+01 0.00e+00 1.01e+00  -0.2 1.10e+01    -  9.37e-01 4.62e-03f  4
  12 -3.0939923e+01 0.00e+00 1.07e+00  -1.6 2.82e-01    -  9.79e-01 1.00e+00f  1
  13 -3.0984257e+01 0.00e+00 5.55e-01  -3.5 4.74e-02    -  1.00e+00 5.32e-01f  1
  14 -3.0999784e+01 0.00e+00 5.88e-01  -4.3 8.29e-02    -  1.00e+00 7.40e-01f  1
  15 -3.0999746e+01 0.00e+00 3.72e-03  -3.6 4.83e-04    -  9.99e-01 1.00e+00f  1
  16 -3.0999519e+01 0.00e+00 5.90e-02  -3.8 2.81e-02    -  1.00e+00 2.50e-01f  3
  17 -3.0999719e+01 0.00e+00 5.39e-02  -3.8 4.73e-02    -  1.00e+00 8.58e-02f  2
  18 -3.0999778e+01 0.00e+00 2.60e-03  -3.8 3.26e-04    -  1.00e+00 1.00e+00f  1
  19 -3.0999779e+01 0.00e+00 4.87e-04  -3.8 6.08e-05    -  1.00e+00 1.00e+00h  1
iter    objective    inf_pr   inf_du lg(mu)  ||d||  lg(rg) alpha_du alpha_pr  ls
  20 -3.0999998e+01 0.00e+00 3.28e-02  -5.7 4.17e-03    -  1.00e+00 1.00e+00f  1
  21 -3.1000000e+01 0.00e+00 5.39e-04  -7.7 2.97e-06    -  1.00e+00 9.84e-01f  1
  22 -3.1000000e+01 0.00e+00 9.35e-04  -9.5 1.17e-04    -  1.00e+00 1.00e+00f  1
  23 -3.1000000e+01 0.00e+00 2.89e-07 -11.0 3.63e-08    -  1.00e+00 1.00e+00f  1
  24 -3.1000000e+01 0.00e+00 1.41e-05 -11.0 1.77e-06    -  1.00e+00 1.00e+00f  1
  25 -3.1000000e+01 0.00e+00 3.25e-06 -11.0 4.06e-07    -  1.00e+00 1.00e+00f  1
  26 -3.1000000e+01 0.00e+00 4.70e-06 -11.0 5.88e-07    -  1.00e+00 1.00e+00h  1
  27 -3.1000000e+01 0.00e+00 3.53e-06 -11.0 1.21e-06    -  1.00e+00 2.50e-01f  3
  28 -3.1000000e+01 0.00e+00 1.60e-06 -11.0 2.00e-07    -  1.00e+00 1.00e+00h  1
  29 -3.1000000e+01 0.00e+00 9.80e-07 -11.0 1.22e-07    -  1.00e+00 1.00e+00f  1
iter    objective    inf_pr   inf_du lg(mu)  ||d||  lg(rg) alpha_du alpha_pr  ls
  30 -3.1000000e+01 0.00e+00 9.33e-07 -11.0 1.17e-07    -  1.00e+00 1.00e+00h  1
  31 -3.1000000e+01 0.00e+00 9.54e-07 -11.0 1.19e-07    -  1.00e+00 1.00e+00f  1
  32 -3.1000000e+01 0.00e+00 9.75e-07 -11.0 1.22e-07    -  1.00e+00 1.00e+00f  1
  33 -3.1000000e+01 0.00e+00 9.89e-07 -11.0 1.24e-07    -  1.00e+00 1.00e+00f  1
  34 -3.1000000e+01 0.00e+00 4.95e-07 -11.0 1.26e-07    -  1.00e+00 5.00e-01h  2
  35 -3.1000000e+01 0.00e+00 8.85e-08 -11.0 1.11e-08    -  1.00e+00 1.00e+00f  1

Number of Iterations....: 35

                                   (scaled)                 (unscaled)
Objective...............:  -3.1000000059985041e+01   -3.1000000059985041e+01
Dual infeasibility......:   8.8511873486210843e-08    8.8511873486210843e-08
Constraint violation....:   0.0000000000000000e+00    0.0000000000000000e+00
Complementarity.........:   9.9999999999999994e-12    9.9999999999999994e-12
Overall NLP error.......:   8.8511873486210843e-08    8.8511873486210843e-08


Number of objective function evaluations             = 79
Number of objective gradient evaluations             = 36
Number of equality constraint evaluations            = 0
Number of inequality constraint evaluations          = 79
Number of equality constraint Jacobian evaluations   = 0
Number of inequality constraint Jacobian evaluations = 36
Number of Lagrangian Hessian evaluations             = 35
Total CPU secs in IPOPT (w/o function evaluations)   =      0.101
Total CPU secs in NLP function evaluations           =      0.003

EXIT: Optimal Solution Found.
